100 5
25 700
10
30
10
10
10
20
20
20
10
10
10
20
30
10
40
40
20
20
10
10
20
20
10
10
40
10
10
20
10
10
20
30
40
20
10
10
20
30
20
10
10
20
10
10
10
30
10
10
10
10
10
10
20
40
10
30
40
30
10
20
10
20
50
10
10
10
10
10
10
30
20
10
10
50
20
10
10
20
10
10
30
20
10
20
30
10
20
30
10
10
10
20
40
10
30
10
30
20
10
20
40 50 0 3390 0 0
52 75 0 3272 90 3
45 70 0 3279 90 2
62 69 0 3270 90 2
60 66 1261 1421 90 1
42 65 0 3284 90 1
16 42 0 3274 90 2
58 70 0 3273 90 2
34 60 2887 3047 90 3
28 70 2601 2761 90 1
35 66 0 3283 90 3
35 69 2698 2858 90 3
25 85 0 3261 90 3
22 75 2405 2565 90 1
22 85 0 3260 90 1
20 80 2216 2376 90 1
20 85 0 3259 90 3
18 75 0 3266 90 3
15 75 0 3264 90 3
15 80 0 3260 90 3
30 50 0 3290 90 1
30 56 0 3288 90 3
28 52 0 3287 90 1
14 66 1643 1803 90 2
25 50 0 3285 90 3
22 66 2504 2664 90 1
8 62 0 3265 90 3
23 52 0 3282 90 2
4 55 0 3263 90 1
20 50 0 3280 90 1
20 55 0 3279 90 2
10 35 0 3266 90 2
10 40 0 3268 90 1
8 40 0 3266 90 1
8 45 0 3267 90 1
5 35 0 3261 90 1
5 45 0 3264 90 1
2 40 0 3260 90 1
0 40 1063 1223 90 2
0 45 0 3259 90 3
36 18 0 3267 90 1
35 32 0 3281 90 3
33 32 0 3280 90 1
33 35 0 3283 90 1
32 20 1913 2073 90 1
30 30 0 3277 90 2
34 25 0 3274 90 3
30 35 0 3281 90 1
36 40 0 3289 90 3
48 20 0 3268 90 2
26 32 0 3277 90 2
25 30 0 3275 90 1
25 35 0 3278 90 3
44 5 1256 1416 90 3
42 10 0 3259 90 3
42 15 1065 1225 90 2
40 5 0 3255 90 2
38 15 0 3264 90 2
38 5 1442 1602 90 3
38 10 0 3259 90 2
35 5 0 3254 90 1
50 30 0 3277 90 2
50 35 120 280 90 2
50 40 0 3285 90 1
48 30 0 3278 90 2
44 25 0 3274 90 1
47 35 0 3283 90 3
47 40 12 172 90 3
42 30 0 3279 90 2
45 35 680 840 90 3
95 30 0 3241 90 3
95 35 0 3242 90 2
53 30 0 3276 90 3
92 30 0 3244 90 2
53 35 213 373 90 2
45 65 0 3284 90 1
90 35 2131 2291 90 1
72 45 2900 3060 90 1
78 40 0 3260 90 2
87 30 2608 2768 90 3
85 25 0 3248 90 2
85 35 0 3252 90 1
75 55 0 3264 90 2
72 55 0 3267 90 2
70 58 1641 1801 90 2
86 46 0 3253 90 3
66 55 0 3273 90 1
64 46 3097 3257 90 1
65 60 0 3273 90 2
56 64 0 3278 90 3
60 55 0 3279 90 3
60 60 0 3277 90 1
67 85 694 854 90 1
42 58 0 3291 90 2
65 82 0 3259 90 1
62 80 0 3262 90 3
62 40 0 3275 90 3
60 85 0 3259 90 2
58 75 0 3269 90 2
55 80 407 567 90 1
55 85 502 662 90 2
84 46 0 3390 45 4
39 69 0 3390 45 4
62 19 0 3390 45 4
37 80 0 3390 45 4
3 33 0 3390 45 4
0 1 0 0 0
0 1 0 0 0
0 1 0 0 0
0 0 0 0 0
0 0 0 0 0
0 0 0 0 1
0 1 0 0 0
0 1 0 0 0
0 0 0 0 0
0 1 0 0 0
0 1 0 0 0
0 0 0 1 0
0 0 0 0 0
0 0 0 0 0
0 0 0 0 0
0 0 0 1 0
0 0 0 1 0
0 0 0 1 0
0 0 0 1 0
0 0 0 0 0
0 1 0 0 0
0 0 0 0 0
0 1 0 0 0
0 1 0 0 0
0 0 0 0 0
0 0 0 0 1
0 1 0 0 0
0 0 0 0 0
0 0 0 0 0
0 1 0 0 0
0 0 0 0 1
0 0 0 0 0
0 0 0 0 0
0 0 0 0 0
0 0 0 0 0
0 0 0 0 0
0 0 0 0 0
0 0 0 0 1
0 0 0 0 1
0 0 0 0 0
0 0 1 0 0
0 0 0 0 0
0 0 0 0 0
0 0 0 0 0
0 0 0 0 1
0 0 1 0 0
0 0 0 0 0
0 1 0 0 0
0 0 1 0 0
0 0 0 0 1
0 0 0 0 0
0 0 0 0 1
0 0 1 0 0
0 0 1 0 0
0 0 1 0 0
0 0 1 0 0
0 0 1 0 0
0 0 1 0 0
0 0 1 0 0
0 0 0 0 0
0 0 1 0 0
0 0 1 0 0
0 0 0 0 0
0 0 1 0 0
0 0 0 0 0
0 0 1 0 0
0 0 1 0 0
0 0 1 0 0
0 0 1 0 0
1 0 0 0 0
1 0 0 0 0
0 0 1 0 0
1 0 0 0 0
0 0 1 0 0
0 0 0 0 0
0 0 0 0 0
0 0 0 0 0
1 0 0 0 0
1 0 0 0 0
1 0 0 0 0
0 0 0 0 0
1 0 0 0 0
1 0 0 0 0
1 0 0 0 0
1 0 0 0 0
0 0 0 0 0
0 0 0 0 0
1 0 0 0 0
0 1 0 0 0
0 1 0 0 0
0 0 0 0 0
0 0 0 0 0
0 1 0 0 0
0 0 0 0 0
0 0 0 1 0
0 0 1 0 0
0 0 0 1 0
0 1 0 0 0
0 0 0 0 0
0 0 0 1 0
